certificates/rado_a15_c64_N48.drat
4 -45 7 0
-4 -46 -47 -48 0
4 7 0
d 45 4 7 0
d 4 -45 7 0
-47 -48 0
d -4 -46 -47 -48 0
-48 0
7 0
-4 0
8 0
44 0
-3 0
22 0
29 0
23 0
2 47 0
d 13 2 47 0
47 0
-6 0
30 0
32 0
10 0
25 0
2 0
0
